SAT
-31 26 54 37 91 -87 -8 -88 11 -95 69 35 29 25 100 -1 75 79 -19 24 -44 4 81 96 98 -45 -40 50 -78 -64 99 -74 41 13 -84 -61 -77 -67 46 51 -48 -39 -65 34 -62 -33 86 -7 28 92 -5 89 16 47 66 59 -52 93 -97 14 21 -20 80 90 43 22 -23 15 94 38 30 -73 83 -27 36 63 -3 68 -85 70 -57 10 82 -71 -17 49 18 76 2 55 58 56 -32 60 12 72 -9 -6 53 -42 0
